results_rootrelaxation/bin012_060_028.srr.sol
solution status: optimal solution found
objective value:                     2.70689655172414
_var673_                           0.0804597701149425 	(obj:0)
_var688_                            0.014367816091954 	(obj:1)
_var705_                            0.482758620689655 	(obj:0)
_var708_                            0.224137931034483 	(obj:0)
_var713_                           0.0143678160919535 	(obj:0)
_var726_                            0.169540229885058 	(obj:0)
_var728_                           0.0114942528735635 	(obj:0)
_var729_                             0.32183908045977 	(obj:1)
_var734_                             0.67816091954023 	(obj:0)
_var743_                            0.112068965517242 	(obj:0)
_var751_                            0.396551724137931 	(obj:1)
_var754_                            0.727011494252873 	(obj:1)
_var768_                            0.649425287356322 	(obj:0)
_var778_                           0.0517241379310342 	(obj:1)
_var780_                             0.32183908045977 	(obj:0)
_var789_                            0.206896551724138 	(obj:1)
_var792_                           0.0373563218390804 	(obj:0)
_var794_                            0.793103448275862 	(obj:0)
_var796_                            0.091954022988506 	(obj:0)
_var801_                            0.112068965517242 	(obj:0)
_var804_                           0.0114942528735632 	(obj:1)
_var808_                             0.71551724137931 	(obj:0)
_var818_                           0.0258620689655171 	(obj:0)
_var834_                            0.169540229885058 	(obj:1)
_var836_                            0.189655172413793 	(obj:0)
_var837_                            0.293103448275862 	(obj:0)
_var843_                           0.0545977011494251 	(obj:0)
_var844_                            0.419540229885058 	(obj:0)
_var845_                            0.399425287356321 	(obj:0)
_var848_                           0.0229885057471264 	(obj:1)
_var849_                            0.206896551724138 	(obj:0)
_var851_                           0.0229885057471263 	(obj:1)
_var852_                            0.063218390804598 	(obj:1)
_var854_                            0.204022988505747 	(obj:0)
_var855_                           0.0603448275862073 	(obj:0)
_var856_                           0.0172413793103447 	(obj:1)
_var857_                            0.114942528735632 	(obj:0)
_var858_                            0.169540229885058 	(obj:1)
_var861_                            0.146551724137931 	(obj:1)
_var862_                            0.479885057471265 	(obj:0)
_var864_                             0.14367816091954 	(obj:0)
_var865_                           0.0804597701149425 	(obj:1)
_var868_                           0.0517241379310342 	(obj:0)
_var870_                            0.451149425287356 	(obj:0)
_var873_                           0.0459770114942526 	(obj:0)
_var875_                           0.0804597701149429 	(obj:1)
_var877_                            0.344827586206896 	(obj:0)
_var879_                           0.0459770114942527 	(obj:0)
_var882_                           0.0689655172413796 	(obj:1)
_var883_                           0.0373563218390808 	(obj:0)
_var887_                           0.0344827586206897 	(obj:2)
_var889_                           0.0172413793103453 	(obj:0)
_var890_                            0.238505747126437 	(obj:0)
_var892_                          0.00862068965517271 	(obj:0)
_var894_                           0.0201149425287355 	(obj:1)
_var895_                            0.045977011494253 	(obj:1)
